
%FILE DATA:	Soccer Computational Problem for MiniZinc Models	%
%AUTHOR:	Jack Wall	%
%CONTACT:  	116397063@umail.ucc.ie			%
%LAST UPDATE:	03/19/2020, 19:31:31						%
%DESCRIPTION: 	255 games played with 17 games left				%


n=17; %number of teams

%Games to play
games=[|11,16|10,5|11,1|10,15|1,12|14,5|6,17|10,8|16,2|7,2|5,17|8,7|7,12|12,5|1,8|12,15|15,12|];

%Initial points
iPoints=[40,34,40,48,44,39,26,47,34,40,45,34,51,48,35,50,34];

%POSITION CONSTRAINTS
% [|teamID, operator, position|...]
% operators index:
%  1 for =  operator
%  2 for >  operator
%  3 for >= operator
%  4 for <  operator
%  5 for <= operator
positionConstraints=[|16,3,1|13,5,2|8,3,3|14,3,4|];